Set parameter Threads to value 1
Set parameter ConcurrentMIP to value 1
Set parameter MIPGap to value 0.05
Set parameter ConcurrentMIP to value 1
Set parameter MIPGap to value 0.05
Set parameter Threads to value 1
Gurobi Optimizer version 13.0.0 build v13.0.0rc1 (linux64 - "AlmaLinux 9.7 (Moss Jungle Cat)")

CPU model: Intel(R) Xeon(R) Gold 6126 CPU @ 2.60GHz, instruction set [SSE2|AVX|AVX2|AVX512]
Thread count: 24 physical cores, 24 logical processors, using up to 1 threads

Non-default parameters:
MIPGap  0.05
TSPort  4195
Threads  1

Optimize a model with 187592 rows, 2654164 columns and 30432676 nonzeros (Min)
Model fingerprint: 0xe7a60bd4
Model has 58276 linear objective coefficients
Variable types: 2619604 continuous, 34560 integer (34560 binary)
Coefficient statistics:
  Matrix range     [1e+00, 3e+02]
  Objective range  [2e-02, 1e+00]
  Bounds range     [0e+00, 0e+00]
  RHS range        [1e+00, 3e+02]
Found heuristic solution: objective 15676.691067
Presolve removed 27096 rows and 32640 columns (presolve time = 7s)...
Presolve removed 47460 rows and 726243 columns (presolve time = 11s)...
Presolve removed 47460 rows and 727965 columns (presolve time = 17s)...
Presolve removed 82248 rows and 728645 columns (presolve time = 20s)...
Presolve removed 82248 rows and 728645 columns (presolve time = 25s)...
Presolve removed 90057 rows and 728645 columns (presolve time = 30s)...
Presolve removed 90057 rows and 728645 columns (presolve time = 35s)...
Presolve removed 106567 rows and 733405 columns (presolve time = 40s)...
Presolve removed 106567 rows and 733405 columns (presolve time = 46s)...
Presolve removed 106567 rows and 733405 columns (presolve time = 50s)...
Presolve removed 106587 rows and 733425 columns (presolve time = 57s)...
Presolve removed 106587 rows and 733425 columns (presolve time = 60s)...
Presolve removed 113821 rows and 1089836 columns (presolve time = 65s)...
Presolve removed 114015 rows and 1090030 columns (presolve time = 70s)...
Presolve removed 114015 rows and 1090030 columns (presolve time = 75s)...
Presolve removed 114015 rows and 1090030 columns (presolve time = 81s)...
Presolve removed 113650 rows and 1089665 columns
Presolve time: 80.87s
Presolved: 73942 rows, 1564499 columns, 10438986 nonzeros
Variable types: 1558001 continuous, 6498 integer (6498 binary)

Root simplex log...

Iteration    Objective       Primal Inf.    Dual Inf.      Time
       0    0.0000000e+00   7.769326e+04   0.000000e+00     96s
   18853    2.5820587e+03   5.888621e+04   0.000000e+00    100s
   30091    2.9042669e+03   6.216999e+04   0.000000e+00    105s
   47730    3.0566264e+03   6.068950e+04   0.000000e+00    110s
   61095    3.1374210e+03   5.208429e+04   0.000000e+00    115s
   71424    3.2070925e+03   4.210148e+04   0.000000e+00    120s
   76082    3.2916967e+03   4.254293e+05   0.000000e+00    125s
   76850    3.2927554e+03   1.893808e+06   0.000000e+00    130s
   77618    3.2936458e+03   1.296625e+07   0.000000e+00    136s
   78258    3.2953262e+03   1.441970e+07   0.000000e+00    140s
   78898    3.3045374e+03   2.911508e+05   0.000000e+00    145s
   79410    3.3045377e+03   6.164680e+05   0.000000e+00    150s
   80818    3.3049569e+03   2.737985e+06   0.000000e+00    155s
   81714    3.3055698e+03   1.135681e+07   0.000000e+00    160s
   82994    3.3262484e+03   5.548811e+05   0.000000e+00    165s
   84018    3.3262489e+03   1.216762e+06   0.000000e+00    171s
   85042    3.3483433e+03   1.727864e+07   0.000000e+00    175s
   85938    3.3483438e+03   2.383364e+06   0.000000e+00    180s
   86834    3.3487118e+03   2.905987e+05   0.000000e+00    185s
   88114    3.3800847e+03   1.019325e+06   0.000000e+00    190s
   89394    3.4037529e+03   1.905962e+06   0.000000e+00    196s
   90546    3.4168937e+03   1.199846e+06   0.000000e+00    200s
   91442    3.4168941e+03   6.203814e+05   0.000000e+00    205s
   92338    3.4628346e+03   1.257202e+06   0.000000e+00    210s
   93234    3.4719461e+03   1.114635e+07   0.000000e+00    215s
   93874    3.4719463e+03   1.331791e+06   0.000000e+00    220s
   94506    3.4719464e+03   1.145414e+06   0.000000e+00    226s
   95530    3.4721665e+03   1.261203e+06   0.000000e+00    230s
   96426    3.4968075e+03   5.703015e+05   0.000000e+00    235s
   97578    3.5081190e+03   1.314022e+06   0.000000e+00    240s
   98474    3.5081195e+03   1.233879e+06   0.000000e+00    245s
   99626    3.5334881e+03   2.790951e+06   0.000000e+00    250s
  100650    3.5334884e+03   1.723873e+07   0.000000e+00    255s
  101418    3.5334887e+03   1.735562e+06   0.000000e+00    261s
  102040    3.5448777e+03   1.155565e+07   0.000000e+00    265s
  103064    3.5448780e+03   5.952841e+05   0.000000e+00    270s
  103960    3.5552598e+03   5.569088e+05   0.000000e+00    275s
  104848    3.5763232e+03   1.100285e+06   0.000000e+00    280s
  105872    3.5777666e+03   4.625997e+05   0.000000e+00    285s
  106896    3.5909386e+03   1.417146e+06   0.000000e+00    290s
  108352    3.6595304e+03   4.884028e+05   0.000000e+00    295s
  109376    3.6690388e+03   1.749983e+06   0.000000e+00    300s
  110400    3.6693267e+03   7.014649e+05   0.000000e+00    306s
  111424    3.6693270e+03   8.775892e+05   0.000000e+00    310s
  112448    3.6946534e+03   7.100612e+05   0.000000e+00    315s
  113344    3.6946535e+03   3.596177e+06   0.000000e+00    321s
  114112    3.6946537e+03   6.999329e+06   0.000000e+00    325s
  115008    3.7090791e+03   1.390901e+06   0.000000e+00    330s
  116032    3.7100941e+03   6.679415e+05   0.000000e+00    335s
  117440    3.7308192e+03   3.762163e+05   0.000000e+00    341s
  118208    3.7316795e+03   3.275615e+05   0.000000e+00    345s
  119104    3.7316796e+03   9.958352e+05   0.000000e+00    350s
  120000    3.7316798e+03   3.348443e+06   0.000000e+00    355s
  120896    3.7322363e+03   3.566736e+06   0.000000e+00    360s
  121792    3.7442876e+03   1.021057e+06   0.000000e+00    365s
  122944    3.7444833e+03   3.652118e+05   0.000000e+00    371s
  123456    3.7444834e+03   3.775342e+05   0.000000e+00    376s
  124608    3.7455605e+03   2.234059e+06   0.000000e+00    381s
  125376    3.7562523e+03   1.187102e+05   0.000000e+00    385s
  126400    3.7689267e+03   5.080590e+06   0.000000e+00    390s
  127296    3.7695568e+03   4.103189e+05   0.000000e+00    395s
  127936    3.7816331e+03   5.370569e+05   0.000000e+00    400s
  128832    3.7816333e+03   6.900025e+05   0.000000e+00    406s
  129600    3.7816335e+03   1.751455e+05   0.000000e+00    410s
  130752    3.7816337e+03   2.760720e+06   0.000000e+00    415s
  131648    3.7816338e+03   1.035201e+06   0.000000e+00    421s
  132526    3.7816339e+03   1.562151e+06   0.000000e+00    426s
  133422    3.7816340e+03   4.817065e+05   0.000000e+00    431s
  134062    3.7816341e+03   9.693842e+05   0.000000e+00    436s
  134830    3.7867662e+03   2.817390e+05   0.000000e+00    440s
  135598    3.7867663e+03   3.757822e+05   0.000000e+00    445s
  136366    3.7867664e+03   1.892415e+06   0.000000e+00    450s
  137134    3.7867665e+03   7.796120e+05   0.000000e+00    456s
  137902    3.7868949e+03   2.566763e+05   0.000000e+00    461s
  138230    3.7868949e+03   2.549041e+05   0.000000e+00    465s
  138706    3.7868950e+03   3.010621e+06   0.000000e+00    471s
  139346    3.7870705e+03   1.992134e+05   0.000000e+00    476s
  139958    3.7870706e+03   5.783198e+05   0.000000e+00    481s
  140726    3.7870707e+03   7.811738e+05   0.000000e+00    486s
  141164    3.7870707e+03   3.756559e+05   0.000000e+00    490s
  141640    3.7870708e+03   1.960331e+06   0.000000e+00    495s
  142272    3.7870709e+03   8.492186e+05   0.000000e+00    501s
  142912    3.7870709e+03   2.458433e+05   0.000000e+00    505s
  143506    3.7870710e+03   1.544801e+06   0.000000e+00    510s
  143962    3.7870711e+03   4.264343e+06   0.000000e+00    515s
  144702    3.8115474e+03   4.923868e+05   0.000000e+00    521s
  145470    3.8205215e+03   2.423278e+06   0.000000e+00    526s
  146092    3.8205215e+03   3.216261e+05   0.000000e+00    531s
  146732    3.8205216e+03   1.831997e+05   0.000000e+00    536s
  147326    3.8205217e+03   9.279807e+05   0.000000e+00    541s
  147830    3.8205217e+03   4.118795e+04   0.000000e+00    545s
  148854    3.8205218e+03   2.126755e+05   0.000000e+00    551s
  149622    3.8205219e+03   2.290685e+05   0.000000e+00    555s
  150244    3.8205219e+03   1.493026e+05   0.000000e+00    560s
  151012    3.8205220e+03   4.811775e+05   0.000000e+00    566s
  151780    3.8205221e+03   8.842538e+04   0.000000e+00    571s
  152284    3.8205221e+03   7.811951e+05   0.000000e+00    576s
  152924    3.8205221e+03   4.876993e+05   0.000000e+00    580s
  153428    3.8207466e+03   2.164225e+05   0.000000e+00    586s
  154068    3.8207466e+03   3.106772e+05   0.000000e+00    590s
  154514    3.8207466e+03   3.384671e+05   0.000000e+00    596s
  154942    3.8207467e+03   1.222900e+05   0.000000e+00    601s
  155582    3.8271020e+03   1.030791e+06   0.000000e+00    606s
  156176    3.8312468e+03   3.850654e+05   0.000000e+00    611s
  156760    3.8312468e+03   1.970932e+06   0.000000e+00    616s
  157108    3.8312469e+03   2.037871e+05   0.000000e+00    620s
  157730    3.8324009e+03   3.277116e+06   0.000000e+00    626s
  158370    3.8324010e+03   6.658457e+04   0.000000e+00    630s
  159002    3.8324010e+03   1.073922e+05   0.000000e+00    636s
  159642    3.8324010e+03   3.346584e+05   0.000000e+00    640s
  160402    3.8324011e+03   1.977843e+05   0.000000e+00    645s
  161426    3.8324012e+03   1.213110e+05   0.000000e+00    651s
  162038    3.8324012e+03   5.194215e+05   0.000000e+00    656s
  162652    3.8324013e+03   1.049983e+06   0.000000e+00    661s
  163156    3.8324013e+03   2.320021e+05   0.000000e+00    665s
  163796    3.8324013e+03   1.332405e+05   0.000000e+00    671s
  164408    3.8324014e+03   3.999000e+04   0.000000e+00    675s
  164904    3.8326121e+03   1.131506e+05   0.000000e+00    680s
  165544    3.8326121e+03   1.001883e+06   0.000000e+00    686s
  165892    3.8326121e+03   7.001898e+05   0.000000e+00    690s
  166350    3.8326121e+03   2.060535e+05   0.000000e+00    695s
  166826    3.8326122e+03   3.952467e+05   0.000000e+00    701s
  167330    3.8326122e+03   1.760625e+05   0.000000e+00    706s
  167834    3.8326122e+03   4.174651e+05   0.000000e+00    710s
  168474    3.8326123e+03   1.809369e+05   0.000000e+00    715s
  169106    3.8326123e+03   5.073063e+05   0.000000e+00    721s
  169746    3.8326123e+03   1.595679e+05   0.000000e+00    725s
  170250    3.8326124e+03   1.332100e+05   0.000000e+00    730s
  170744    3.8326124e+03   7.102128e+04   0.000000e+00    735s
  171182    3.8326124e+03   9.824159e+04   0.000000e+00    741s
  171950    3.8452078e+03   4.434839e+04   0.000000e+00    746s
  172446    3.8452079e+03   2.929452e+05   0.000000e+00    751s
  173078    3.8452079e+03   9.665398e+04   0.000000e+00    756s
  173534    3.8452079e+03   2.844687e+05   0.000000e+00    761s
  174020    3.8452079e+03   2.295609e+05   0.000000e+00    766s
  174524    3.8452080e+03   3.471843e+05   0.000000e+00    770s
  174952    3.8454633e+03   3.455286e+05   0.000000e+00    775s
  175446    3.8462867e+03   1.494748e+05   0.000000e+00    780s
  175932    3.8462867e+03   1.525148e+05   0.000000e+00    785s
  176554    3.8471864e+03   7.236021e+04   0.000000e+00    791s
  176884    3.8471864e+03   3.376810e+05   0.000000e+00    796s
  177506    3.8523306e+03   4.531420e+05   0.000000e+00    800s
  178138    3.8530179e+03   7.373909e+04   0.000000e+00    805s
  178732    3.8530180e+03   9.359181e+04   0.000000e+00    810s
  179162    3.8530180e+03   9.406741e+04   0.000000e+00    816s
  179492    3.8530180e+03   1.058260e+05   0.000000e+00    821s
  180124    3.8530180e+03   1.067553e+05   0.000000e+00    826s
  180628    3.8530180e+03   9.546768e+05   0.000000e+00    830s
  181242    3.8530181e+03   6.130932e+05   0.000000e+00    836s
  181580    3.8530181e+03   1.651614e+05   0.000000e+00    840s
  182074    3.8530181e+03   2.416703e+04   0.000000e+00    845s
  182568    3.8530181e+03   4.390304e+05   0.000000e+00    851s
  183172    3.8530181e+03   6.430354e+04   0.000000e+00    856s
  183530    3.8530182e+03   6.692616e+04   0.000000e+00    860s
  184016    3.8530182e+03   3.070091e+05   0.000000e+00    865s
  184482    3.8530182e+03   4.910383e+05   0.000000e+00    870s
  184932    3.8530182e+03   1.184532e+05   0.000000e+00    876s
  185426    3.8530182e+03   9.571840e+04   0.000000e+00    881s
  185920    3.8530182e+03   1.793502e+05   0.000000e+00    886s
  186304    3.8530182e+03   4.407676e+05   0.000000e+00    891s
  186754    3.8530183e+03   1.089205e+05   0.000000e+00    896s
  187102    3.8530183e+03   9.432365e+04   0.000000e+00    900s
  187734    3.8530183e+03   1.820887e+05   0.000000e+00    905s
  188338    3.8530183e+03   2.793039e+04   0.000000e+00    911s
  188978    3.8545183e+03   3.304544e+04   0.000000e+00    916s
  189336    3.8545184e+03   1.405696e+05   0.000000e+00    920s
  189812    3.8545184e+03   1.702508e+05   0.000000e+00    925s
  190324    3.8545184e+03   1.070607e+05   0.000000e+00    930s
  190828    3.8545184e+03   7.092820e+05   0.000000e+00    936s
  191376    3.8545184e+03   1.698123e+05   0.000000e+00    943s
  191596    3.8545184e+03   4.597901e+04   0.000000e+00    946s
  192092    3.8545184e+03   3.504590e+04   0.000000e+00    951s
  192560    3.8545184e+03   7.602403e+04   0.000000e+00    956s
  192890    3.8545184e+03   4.269048e+04   0.000000e+00    961s
  193336    3.8545184e+03   4.412069e+04   0.000000e+00    966s
  193804    3.8545185e+03   1.154533e+04   0.000000e+00    971s
  194154    3.8545185e+03   7.226373e+03   0.000000e+00    975s
  194614    3.8545185e+03   3.502204e+04   0.000000e+00    981s
  194944    3.8545185e+03   6.823061e+04   0.000000e+00    985s
  195530    3.8545185e+03   1.798358e+04   0.000000e+00    991s
  195860    3.8545185e+03   2.263470e+04   0.000000e+00    996s
  196398    3.8545185e+03   1.891640e+04   0.000000e+00   1003s
  196636    3.8545185e+03   1.820668e+04   0.000000e+00   1005s
  197112    3.8545185e+03   4.885141e+04   0.000000e+00   1011s
  197670    3.8545185e+03   1.343476e+04   0.000000e+00   1017s
  197926    3.8545185e+03   6.565119e+04   0.000000e+00   1020s
  198404    3.8545185e+03   1.324853e+04   0.000000e+00   1026s
  198754    3.8545185e+03   2.123625e+04   0.000000e+00   1030s
  199250    3.8545185e+03   5.916368e+04   0.000000e+00   1035s
  199718    3.8545185e+03   1.816970e+04   0.000000e+00   1040s
  200166    3.8545185e+03   8.164918e+03   0.000000e+00   1046s
  200596    3.8545185e+03   1.565810e+04   0.000000e+00   1051s
  200926    3.8545185e+03   2.556744e+04   0.000000e+00   1055s
  201366    3.8545186e+03   1.706026e+03   0.000000e+00   1061s
  201796    3.8545186e+03   1.414995e+03   0.000000e+00   1066s
  202164    3.8545186e+03   2.905455e+03   0.000000e+00   1070s
  202652    3.8545186e+03   9.744671e+02   0.000000e+00   1076s
  203010    3.8545186e+03   4.463187e+02   0.000000e+00   1080s
  203504    3.8545186e+03   1.752017e+02   0.000000e+00   1085s
  203967    3.8544950e+03   0.000000e+00   0.000000e+00   1091s

Use crossover to convert LP symmetric solution to basic solution...

Root crossover log...

   17060 PPushes remaining with PInf 0.0000000e+00              1092s
       0 PPushes remaining with PInf 0.0000000e+00              1092s

   11766 DPushes remaining with DInf 0.0000000e+00              1092s
       0 DPushes remaining with DInf 0.0000000e+00              1093s

  Push phase complete: Pinf 0.0000000e+00, Dinf 5.5929913e-12   1093s


Root simplex log...

Iteration    Objective       Primal Inf.    Dual Inf.      Time
  229871    3.8544950e+03   0.000000e+00   0.000000e+00   1093s
Crossover time: 1.43 seconds (0.60 work units)
  229871    3.8544950e+03   0.000000e+00   0.000000e+00   1093s

Root relaxation: objective 3.854495e+03, 229871 iterations, 1007.42 seconds (540.28 work units)

    Nodes    |    Current Node    |     Objective Bounds      |     Work
 Expl Unexpl |  Obj  Depth IntInf | Incumbent    BestBd   Gap | It/Node Time

     0     0 3854.49500    0   63 15676.6911 3854.49500  75.4%     - 3809s
H    0     0                    3973.3075479 3854.49500  2.99%     - 3809s

Explored 1 nodes (471634 simplex iterations) in 3810.10 seconds (2283.67 work units)
Thread count was 1 (of 24 available processors)

Solution count 2: 3973.31 15676.7 

Optimal solution found (tolerance 5.00e-02)
Best objective 3.973307547928e+03, best bound 3.854495000000e+03, gap 2.9903%

User-callback calls 8554, time in user-callback 0.02 sec
